15 200
0 0 70 70 0 0 1351 0 0 0
1 147 96 26 10 51 490 90 0 136
2 160 99 26 40 111 540 90 0 86
3 32 129 9 10 84 572 90 0 51
4 171 135 6 30 91 492 90 0 189
5 65 135 3 20 93 726 90 0 115
6 94 137 3 20 286 818 0 0 205
7 179 91 71 20 537 1181 0 0 206
8 136 133 12 -10 531 1141 90 147 0
9 86 135 0 -40 95 649 90 160 0
10 51 137 6 -10 446 843 90 32 0
11 189 131 11 -30 684 1171 90 171 0
12 115 136 0 -20 191 727 90 65 0
13 205 137 3 -20 286 818 90 94 0
14 206 91 71 -20 537 1181 90 179 0

